=obj=                -44
C0001                1
C0002                1
C0003                0
C0004                0
C0005                0
C0006                0
C0007                0
C0008                0
C0009                0
C0010                0
C0011                0
C0012                0
C0013                0
C0014                0
C0015                0
C0016                0
C0017                0
C0018                0
C0019                0
C0020                0
C0021                0
C0022                0
C0023                0
C0024                0
C0025                0
C0026                0
C0027                1
C0028                0
C0029                0
C0030                0
C0031                0
C0032                0
C0033                0
C0034                0
C0035                0
C0036                0
C0037                0
C0038                0
C0039                0
C0040                0
C0041                0
C0042                0
C0043                0
C0044                0
C0045                0
C0046                1
C0047                0
C0048                0
C0049                0
C0050                0
C0051                0
C0052                1
C0053                0
C0054                0
C0055                0
C0056                0
C0057                0
C0058                0
C0059                0
C0060                0
C0061                0
C0062                0
C0063                0
C0064                0
C0065                0
C0066                0
C0067                0
C0068                0
C0069                1
C0070                0
C0071                0
C0072                0
C0073                0
C0074                1
C0075                0
C0076                0
C0077                0
C0078                0
C0079                0
C0080                0
C0081                0
C0082                0
C0083                1
C0084                0
C0085                0
C0086                0
C0087                0
C0088                0
C0089                0
C0090                0
C0091                0
C0092                1
C0093                0
C0094                0
C0095                0
C0096                0
C0097                0
C0098                0
C0099                0
C0100                0
C0101                0
C0102                0
C0103                1
C0104                0
C0105                1
C0106                0
C0107                0
C0108                0
C0109                0
C0110                0
C0111                0
C0112                0
C0113                0
C0114                0
C0115                0
C0116                0
C0117                0
C0118                1
C0119                0
C0120                1
C0121                0
C0122                0
C0123                0
C0124                0
C0125                0
C0126                0
C0127                0
C0128                0
C0129                0
C0130                1
C0131                1
C0132                0
C0133                0
C0134                0
C0135                0
C0136                0
C0137                0
C0138                0
C0139                0
C0140                0
C0141                0
C0142                0
C0143                0
C0144                0
C0145                0
C0146                0
C0147                0
C0148                0
C0149                0
C0150                0
C0151                0
C0152                0
C0153                0
C0154                0
C0155                0
C0156                0
C0157                0
C0158                1
C0159                1
C0160                0
C0161                1
C0162                0
C0163                0
C0164                0
C0165                0
C0166                0
C0167                0
C0168                0
C0169                0
C0170                0
C0171                0
C0172                0
C0173                0
C0174                0
C0175                0
C0176                1
C0177                0
C0178                0
C0179                0
C0180                0
C0181                0
C0182                0
C0183                0
C0184                0
C0185                0
C0186                1
C0187                0
C0188                0
C0189                1
C0190                0
C0191                0
C0192                0
C0193                0
C0194                0
C0195                0
C0196                0
C0197                0
C0198                0
C0199                0
C0200                0
C0201                0
C0202                0
C0203                0
C0204                0
C0205                1
C0206                0
C0207                1
C0208                0
C0209                0
C0210                0
C0211                0
C0212                0
C0213                0
C0214                0
C0215                0
C0216                0
C0217                0
C0218                0
C0219                0
C0220                0
C0221                0
C0222                0
C0223                0
C0224                1
C0225                0
C0226                0
C0227                0
C0228                0
C0229                0
C0230                0
C0231                0
C0232                0
C0233                0
C0234                0
C0235                0
C0236                0
C0237                0
C0238                0
C0239                0
C0240                0
C0241                1
C0242                0
C0243                0
C0244                0
C0245                1
C0246                0
C0247                0
C0248                0
C0249                0
C0250                0
C0251                0
C0252                0
C0253                0
C0254                0
C0255                0
C0256                0
C0257                0
C0258                1
C0259                0
C0260                0
C0261                0
C0262                0
C0263                0
C0264                0
C0265                0
C0266                1
C0267                0
C0268                0
C0269                0
C0270                0
C0271                0
C0272                0
C0273                0
C0274                0
C0275                0
C0276                0
C0277                0
C0278                0
C0279                0
C0280                0
C0281                0
C0282                0
C0283                0
C0284                0
C0285                0
C0286                0
C0287                0
C0288                0
C0289                0
C0290                0
C0291                0
C0292                0
C0293                0
C0294                0
C0295                0
C0296                0
C0297                1
C0298                0
C0299                0
C0300                0
C0301                0
C0302                1
C0303                0
C0304                0
C0305                0
C0306                0
C0307                0
C0308                0
C0309                0
C0310                0
C0311                1
C0312                0
C0313                0
C0314                0
C0315                0
C0316                1
C0317                0
C0318                0
C0319                0
C0320                0
C0321                0
C0322                0
C0323                0
C0324                0
C0325                0
C0326                0
C0327                0
C0328                0
C0329                0
C0330                0
C0331                0
C0332                1
C0333                1
C0334                0
C0335                0
C0336                0
C0337                0
C0338                0
C0339                0
C0340                0
C0341                0
C0342                0
C0343                0
C0344                0
C0345                0
C0346                0
C0347                0
C0348                1
C0349                0
C0350                1
C0351                0
C0352                0
C0353                0
C0354                0
C0355                0
C0356                0
C0357                0
C0358                0
C0359                0
C0360                0
C0361                0
C0362                0
C0363                0
C0364                0
C0365                0
C0366                1
C0367                1
C0368                0
C0369                1
C0370                1
C0371                0
C0372                0
C0373                0
C0374                0
C0375                0
C0376                0
C0377                0
C0378                0
C0379                0
C0380                0
C0381                0
C0382                0
C0383                0
C0384                0
C0385                0
C0386                1
C0387                0
C0388                0
C0389                0
C0390                0
C0391                0
C0392                0
C0393                0
C0394                0
C0395                1
C0396                0
C0397                0
C0398                0
C0399                0
C0400                0
C0401                1
C0402                0
C0403                0
C0404                0
C0405                0
C0406                0
C0407                0
C0408                0
C0409                0
C0410                0
C0411                0
C0412                0
C0413                0
C0414                0
C0415                0
C0416                1
C0417                1
C0418                1
C0419                1
C0420                0
C0421                1
C0422                1
C0423                0
C0424                1
C0425                1
C0426                1
C0427                0
C0428                1
C0429                0
C0430                0
C0431                0
C0432                0
C0433                0
C0434                0
C0435                0
C0436                0
C0437                0
C0438                0
C0439                0
C0440                0
C0441                0
C0442                0
C0443                1
C0444                0
C0445                0
C0446                0
C0447                0
C0448                0
C0449                0
C0450                0
C0451                0
C0452                0
C0453                0
C0454                0
C0455                1
C0456                0
C0457                0
C0458                0
C0459                0
C0460                0
C0461                0
C0462                1
C0463                1
C0464                1
C0465                0
C0466                0
C0467                0
C0468                1
C0469                0
C0470                0
C0471                0
C0472                0
C0473                0
C0474                0
C0475                1
C0476                0
C0477                1
C0478                0
C0479                0
C0480                0
C0481                1
C0482                1
C0483                0
C0484                1
C0485                1
C0486                0
C0487                0
C0488                0
C0489                0
C0490                1
C0491                0
C0492                0
C0493                1
C0494                0
C0495                0
C0496                0
C0497                0
C0498                0
C0499                1
C0500                0
C0501                0
C0502                0
C0503                0
C0504                0
C0505                0
C0506                0
C0507                1
C0508                1
C0509                0
C0510                0
C0511                0
C0512                0
C0513                0
C0514                0
C0515                1
C0516                0
C0517                0
C0518                0
C0519                1
C0520                0
C0521                1
C0522                0
C0523                0
C0524                1
C0525                0
C0526                0
C0527                1
C0528                0
C0529                0
C0530                0
C0531                0
C0532                0
C0533                0
C0534                1
C0535                0
C0536                1
C0537                0
C0538                0
C0539                0
C0540                0
C0541                0
C0542                0
C0543                0
C0544                0
C0545                0
C0546                1
C0547                1
C0548                0
C0549                0
C0550                0
C0551                0
C0552                0
C0553                0
C0554                0
C0555                0
C0556                0
C0557                0
C0558                0
C0559                0
C0560                0
C0561                0
C0562                0
C0563                0
C0564                0
C0565                0
C0566                0
C0567                0
C0568                0
C0569                0
C0570                0
C0571                0
C0572                0
C0573                0
C0574                1
C0575                1
C0576                0
C0577                1
C0578                0
C0579                0
C0580                0
C0581                0
C0582                0
C0583                0
C0584                0
C0585                0
C0586                0
C0587                0
C0588                0
C0589                0
C0590                0
C0591                0
C0592                1
C0593                0
C0594                0
C0595                0
C0596                0
C0597                0
C0598                0
C0599                0
C0600                0
C0601                0
C0602                1
C0603                0
C0604                0
C0605                1
C0606                0
C0607                0
C0608                0
C0609                0
C0610                0
C0611                0
C0612                0
C0613                0
C0614                0
C0615                0
C0616                0
C0617                0
C0618                0
C0619                0
C0620                0
C0621                1
C0622                1
C0623                1
C0624                0
C0625                0
C0626                0
C0627                0
C0628                0
C0629                0
C0630                0
C0631                0
C0632                0
C0633                0
C0634                0
C0635                0
C0636                0
C0637                0
C0638                0
C0639                0
C0640                1
C0641                0
C0642                0
C0643                0
C0644                0
C0645                0
C0646                0
C0647                0
C0648                0
C0649                0
C0650                0
C0651                0
C0652                0
C0653                0
C0654                0
C0655                0
C0656                0
C0657                1
C0658                0
C0659                1
C0660                0
C0661                1
C0662                1
C0663                1
C0664                1
C0665                1
C0666                0
C0667                1
C0668                1
C0669                0
C0670                0
C0671                0
C0672                0
C0673                0
C0674                1
C0675                0
C0676                1
C0677                0
C0678                0
C0679                0
C0680                0
C0681                0
C0682                1
C0683                0
C0684                0
C0685                0
C0686                0
C0687                0
C0688                0
C0689                0
C0690                0
C0691                0
C0692                0
C0693                0
C0694                1
C0695                0
C0696                1
C0697                0
C0698                0
C0699                0
C0700                0
C0701                0
C0702                0
C0703                0
C0704                0
C0705                1
C0706                0
C0707                1
C0708                0
C0709                1
C0710                1
C0711                0
C0712                1
C0713                1
C0714                0
C0715                1
C0716                0
C0717                1
C0718                1
C0719                1
C0720                1
C0721                0
C0722                0
C0723                0
C0724                0
C0725                0
C0726                0
C0727                1
C0728                0
C0729                0
C0730                0
C0731                0
C0732                1
C0733                0
C0734                0
C0735                0
C0736                0
C0737                1
C0738                0
C0739                1
C0740                1
C0741                1
C0742                1
C0743                1
C0744                1
C0745                1
C0746                1
C0747                0
C0748                1
C0749                1
C0750                1
C0751                1
C0752                1
C0753                0
C0754                1
C0755                1
C0756                1
C0757                1
C0758                1
C0759                1
C0760                1
C0761                1
C0762                1
C0763                1
C0764                1
C0765                1
C0766                1
C0767                1
C0768                0
C0769                0
C0770                0
C0771                1
C0772                1
C0773                1
C0774                1
C0775                1
C0776                1
C0777                1
C0778                1
C0779                1
C0780                1
C0781                1
C0782                1
C0783                1
C0784                1
C0785                1
C0786                1
C0787                0
C0788                0
C0789                0
C0790                0
C0791                0
C0792                0
C0793                0
C0794                0
C0795                0
C0796                0
C0797                0
C0798                0
C0799                0
C0800                0
C0801                0
C0802                1
C0803                0
C0804                0
C0805                0
C0806                0
C0807                0
C0808                0
C0809                0
C0810                0
C0811                1
C0812                0
C0813                0
C0814                0
C0815                0
C0816                0
C0817                1
C0818                0
C0819                0
C0820                0
C0821                0
C0822                0
C0823                0
C0824                0
C0825                0
C0826                0
C0827                0
C0828                0
C0829                0
C0830                0
C0831                0
C0832                1
